(set-option :print-success true)
(set-option :produce-assignments true)
(set-option :produce-proofs true)
(set-logic QF_UF)
(declare-sort A2listB 0)
(declare-sort A 0)
(declare-sort listB 0)
(declare-fun flat_map (A2listB listB) A2listB)
(declare-fun l () listB)
(declare-fun g (A) A2listB)
(declare-fun f (A) A2listB)
(assert (forall ((a A)) (= (f a) (g a))))
(assert (not (= (flat_map f l) (flat_map g l))))

